 # File generated with atomsk by leleslx on 2017-10-13 10:19:36
1.000000
     24.00000000        0.00000000        0.00000000
      0.00000000       24.00000000        0.00000000
      0.00000000        0.00000000       28.96990000
      Sr Ti O1 Ti O2
    72      36     144      72     144
Cartesian
     10.00000000       10.00000000       10.00000000
     10.00000000       10.00000000       14.00000000
     10.00000000       14.00000000       10.00000000
     10.00000000       14.00000000       14.00000000
     10.00000000       18.00000000       10.00000000
     10.00000000       18.00000000       14.00000000
     10.00000000        2.00000000       10.00000000
     10.00000000        2.00000000       14.00000000
     10.00000000       22.00000000       10.00000000
     10.00000000       22.00000000       14.00000000
     10.00000000        6.00000000       10.00000000
     10.00000000        6.00000000       14.00000000
     14.00000000       10.00000000       10.00000000
     14.00000000       10.00000000       14.00000000
     14.00000000       14.00000000       10.00000000
     14.00000000       14.00000000       14.00000000
     14.00000000       18.00000000       10.00000000
     14.00000000       18.00000000       14.00000000
     14.00000000        2.00000000       10.00000000
     14.00000000        2.00000000       14.00000000
     14.00000000       22.00000000       10.00000000
     14.00000000       22.00000000       14.00000000
     14.00000000        6.00000000       10.00000000
     14.00000000        6.00000000       14.00000000
     18.00000000       10.00000000       10.00000000
     18.00000000       10.00000000       14.00000000
     18.00000000       14.00000000       10.00000000
     18.00000000       14.00000000       14.00000000
     18.00000000       18.00000000       10.00000000
     18.00000000       18.00000000       14.00000000
     18.00000000        2.00000000       10.00000000
     18.00000000        2.00000000       14.00000000
     18.00000000       22.00000000       10.00000000
     18.00000000       22.00000000       14.00000000
     18.00000000        6.00000000       10.00000000
     18.00000000        6.00000000       14.00000000
      2.00000000       10.00000000       10.00000000
      2.00000000       10.00000000       14.00000000
      2.00000000       14.00000000       10.00000000
      2.00000000       14.00000000       14.00000000
      2.00000000       18.00000000       10.00000000
      2.00000000       18.00000000       14.00000000
      2.00000000        2.00000000       10.00000000
      2.00000000        2.00000000       14.00000000
      2.00000000       22.00000000       10.00000000
      2.00000000       22.00000000       14.00000000
      2.00000000        6.00000000       10.00000000
      2.00000000        6.00000000       14.00000000
     22.00000000       10.00000000       10.00000000
     22.00000000       10.00000000       14.00000000
     22.00000000       14.00000000       10.00000000
     22.00000000       14.00000000       14.00000000
     22.00000000       18.00000000       10.00000000
     22.00000000       18.00000000       14.00000000
     22.00000000        2.00000000       10.00000000
     22.00000000        2.00000000       14.00000000
     22.00000000       22.00000000       10.00000000
     22.00000000       22.00000000       14.00000000
     22.00000000        6.00000000       10.00000000
     22.00000000        6.00000000       14.00000000
      6.00000000       10.00000000       10.00000000
      6.00000000       10.00000000       14.00000000
      6.00000000       14.00000000       10.00000000
      6.00000000       14.00000000       14.00000000
      6.00000000       18.00000000       10.00000000
      6.00000000       18.00000000       14.00000000
      6.00000000        2.00000000       10.00000000
      6.00000000        2.00000000       14.00000000
      6.00000000       22.00000000       10.00000000
      6.00000000       22.00000000       14.00000000
      6.00000000        6.00000000       10.00000000
      6.00000000        6.00000000       14.00000000
      0.00000000        0.00000000       12.00000000
      0.00000000       12.00000000       12.00000000
      0.00000000       16.00000000       12.00000000
      0.00000000       20.00000000       12.00000000
      0.00000000        4.00000000       12.00000000
      0.00000000        8.00000000       12.00000000
     12.00000000        0.00000000       12.00000000
     12.00000000       12.00000000       12.00000000
     12.00000000       16.00000000       12.00000000
     12.00000000       20.00000000       12.00000000
     12.00000000        4.00000000       12.00000000
     12.00000000        8.00000000       12.00000000
     16.00000000        0.00000000       12.00000000
     16.00000000       12.00000000       12.00000000
     16.00000000       16.00000000       12.00000000
     16.00000000       20.00000000       12.00000000
     16.00000000        4.00000000       12.00000000
     16.00000000        8.00000000       12.00000000
     20.00000000        0.00000000       12.00000000
     20.00000000       12.00000000       12.00000000
     20.00000000       16.00000000       12.00000000
     20.00000000       20.00000000       12.00000000
     20.00000000        4.00000000       12.00000000
     20.00000000        8.00000000       12.00000000
      4.00000000        0.00000000       12.00000000
      4.00000000       12.00000000       12.00000000
      4.00000000       16.00000000       12.00000000
      4.00000000       20.00000000       12.00000000
      4.00000000        4.00000000       12.00000000
      4.00000000        8.00000000       12.00000000
      8.00000000        0.00000000       12.00000000
      8.00000000       12.00000000       12.00000000
      8.00000000       16.00000000       12.00000000
      8.00000000       20.00000000       12.00000000
      8.00000000        4.00000000       12.00000000
      8.00000000        8.00000000       12.00000000
      0.00000000        0.00000000       10.00000000
      0.00000000        0.00000000       14.00000000
      0.00000000       10.00000000       12.00000000
      0.00000000       12.00000000       10.00000000
      0.00000000       12.00000000       14.00000000
      0.00000000       14.00000000       12.00000000
      0.00000000       16.00000000       10.00000000
      0.00000000       16.00000000       14.00000000
      0.00000000       18.00000000       12.00000000
      0.00000000       20.00000000       10.00000000
      0.00000000       20.00000000       14.00000000
      0.00000000        2.00000000       12.00000000
      0.00000000       22.00000000       12.00000000
      0.00000000        4.00000000       10.00000000
      0.00000000        4.00000000       14.00000000
      0.00000000        6.00000000       12.00000000
      0.00000000        8.00000000       10.00000000
      0.00000000        8.00000000       14.00000000
     10.00000000        0.00000000       12.00000000
     10.00000000       12.00000000       12.00000000
     10.00000000       16.00000000       12.00000000
     10.00000000       20.00000000       12.00000000
     10.00000000        4.00000000       12.00000000
     10.00000000        8.00000000       12.00000000
     12.00000000        0.00000000       10.00000000
     12.00000000        0.00000000       14.00000000
     12.00000000       10.00000000       12.00000000
     12.00000000       12.00000000       10.00000000
     12.00000000       12.00000000       14.00000000
     12.00000000       14.00000000       12.00000000
     12.00000000       16.00000000       10.00000000
     12.00000000       16.00000000       14.00000000
     12.00000000       18.00000000       12.00000000
     12.00000000       20.00000000       10.00000000
     12.00000000       20.00000000       14.00000000
     12.00000000        2.00000000       12.00000000
     12.00000000       22.00000000       12.00000000
     12.00000000        4.00000000       10.00000000
     12.00000000        4.00000000       14.00000000
     12.00000000        6.00000000       12.00000000
     12.00000000        8.00000000       10.00000000
     12.00000000        8.00000000       14.00000000
     14.00000000        0.00000000       12.00000000
     14.00000000       12.00000000       12.00000000
     14.00000000       16.00000000       12.00000000
     14.00000000       20.00000000       12.00000000
     14.00000000        4.00000000       12.00000000
     14.00000000        8.00000000       12.00000000
     16.00000000        0.00000000       10.00000000
     16.00000000        0.00000000       14.00000000
     16.00000000       10.00000000       12.00000000
     16.00000000       12.00000000       10.00000000
     16.00000000       12.00000000       14.00000000
     16.00000000       14.00000000       12.00000000
     16.00000000       16.00000000       10.00000000
     16.00000000       16.00000000       14.00000000
     16.00000000       18.00000000       12.00000000
     16.00000000       20.00000000       10.00000000
     16.00000000       20.00000000       14.00000000
     16.00000000        2.00000000       12.00000000
     16.00000000       22.00000000       12.00000000
     16.00000000        4.00000000       10.00000000
     16.00000000        4.00000000       14.00000000
     16.00000000        6.00000000       12.00000000
     16.00000000        8.00000000       10.00000000
     16.00000000        8.00000000       14.00000000
     18.00000000        0.00000000       12.00000000
     18.00000000       12.00000000       12.00000000
     18.00000000       16.00000000       12.00000000
     18.00000000       20.00000000       12.00000000
     18.00000000        4.00000000       12.00000000
     18.00000000        8.00000000       12.00000000
     20.00000000        0.00000000       10.00000000
     20.00000000        0.00000000       14.00000000
      2.00000000        0.00000000       12.00000000
     20.00000000       10.00000000       12.00000000
     20.00000000       12.00000000       10.00000000
     20.00000000       12.00000000       14.00000000
     20.00000000       14.00000000       12.00000000
     20.00000000       16.00000000       10.00000000
     20.00000000       16.00000000       14.00000000
     20.00000000       18.00000000       12.00000000
     20.00000000       20.00000000       10.00000000
     20.00000000       20.00000000       14.00000000
     20.00000000        2.00000000       12.00000000
     20.00000000       22.00000000       12.00000000
     20.00000000        4.00000000       10.00000000
     20.00000000        4.00000000       14.00000000
     20.00000000        6.00000000       12.00000000
     20.00000000        8.00000000       10.00000000
     20.00000000        8.00000000       14.00000000
      2.00000000       12.00000000       12.00000000
      2.00000000       16.00000000       12.00000000
      2.00000000       20.00000000       12.00000000
      2.00000000        4.00000000       12.00000000
      2.00000000        8.00000000       12.00000000
     22.00000000        0.00000000       12.00000000
     22.00000000       12.00000000       12.00000000
     22.00000000       16.00000000       12.00000000
     22.00000000       20.00000000       12.00000000
     22.00000000        4.00000000       12.00000000
     22.00000000        8.00000000       12.00000000
      4.00000000        0.00000000       10.00000000
      4.00000000        0.00000000       14.00000000
      4.00000000       10.00000000       12.00000000
      4.00000000       12.00000000       10.00000000
      4.00000000       12.00000000       14.00000000
      4.00000000       14.00000000       12.00000000
      4.00000000       16.00000000       10.00000000
      4.00000000       16.00000000       14.00000000
      4.00000000       18.00000000       12.00000000
      4.00000000       20.00000000       10.00000000
      4.00000000       20.00000000       14.00000000
      4.00000000        2.00000000       12.00000000
      4.00000000       22.00000000       12.00000000
      4.00000000        4.00000000       10.00000000
      4.00000000        4.00000000       14.00000000
      4.00000000        6.00000000       12.00000000
      4.00000000        8.00000000       10.00000000
      4.00000000        8.00000000       14.00000000
      6.00000000        0.00000000       12.00000000
      6.00000000       12.00000000       12.00000000
      6.00000000       16.00000000       12.00000000
      6.00000000       20.00000000       12.00000000
      6.00000000        4.00000000       12.00000000
      6.00000000        8.00000000       12.00000000
      8.00000000        0.00000000       10.00000000
      8.00000000        0.00000000       14.00000000
      8.00000000       10.00000000       12.00000000
      8.00000000       12.00000000       10.00000000
      8.00000000       12.00000000       14.00000000
      8.00000000       14.00000000       12.00000000
      8.00000000       16.00000000       10.00000000
      8.00000000       16.00000000       14.00000000
      8.00000000       18.00000000       12.00000000
      8.00000000       20.00000000       10.00000000
      8.00000000       20.00000000       14.00000000
      8.00000000        2.00000000       12.00000000
      8.00000000       22.00000000       12.00000000
      8.00000000        4.00000000       10.00000000
      8.00000000        4.00000000       14.00000000
      8.00000000        6.00000000       12.00000000
      8.00000000        8.00000000       10.00000000
      8.00000000        8.00000000       14.00000000
      3.78487000        0.38823600       19.08470000
      1.90960000       12.70020000       18.22337000
      1.93680000       17.75250000       16.14390000
      1.62297000       21.29740000       17.21239000
     23.44830000        2.02721000       15.29770000
      2.89610000       10.76330000       19.51020000
     13.38100000        9.26123000       21.00510000
     10.61470000       12.87310000       18.90983000
     10.33650000       16.01810000       19.81223000
      8.93282000        1.83908000       16.87159000
     12.49260000        3.37914000       18.70263000
      9.70046000        5.59655000       16.63743000
     11.28850000       23.30710000       16.14192000
     11.38480000       10.55550000       14.12648000
     15.12520000       18.06440000       14.39867000
     15.06150000       18.44060000       15.01086000
     15.15980000        4.56238000       17.90232000
     12.10310000        6.69883000       17.23846000
     17.34110000        9.88295000       18.28710000
     13.02330000       15.08280000       17.74097000
     13.21340000       21.14250000       15.77508000
     17.32510000       22.14730000       21.31260000
     15.26040000        5.94773000       19.00043000
     12.90450000        7.86436000       19.78072000
     16.38590000        0.57088300       16.83421000
     17.97500000       13.33410000       16.09026000
     14.71090000       16.13800000       19.52471000
     14.40240000       19.36620000       14.41822000
     16.64090000        5.04040000       17.93360000
     19.43470000        9.71704000       14.25424000
     19.46010000        9.20953000       16.05519000
     16.98280000       12.31180000       18.31422000
     17.13160000       21.03280000       19.06911000
     18.56980000       23.36090000       17.55880000
     16.07770000        4.47932000       17.33614000
     16.13430000        5.78871000       18.35756000
     20.31090000       23.58980000       15.07443000
     21.04330000       14.60490000       15.25629000
     22.92590000       16.16110000       17.58440000
     22.79110000       21.87660000       19.44433000
     20.43500000        6.45832000       16.92079000
     21.77240000       11.98330000       14.98217000
     20.20590000       13.32650000       18.10910000
     23.07690000       12.21530000       15.80278000
     20.56650000       20.83440000       20.67630000
      1.70792000        1.04158000       17.39006000
     21.62240000        4.17464000       20.72690000
     23.04660000        4.65709000       19.11842000
      4.19374000       10.16730000       21.31370000
      4.29077000       13.04890000       15.59269000
      3.50146000       17.08630000       21.46070000
      4.14193000       21.35260000       21.38790000
      0.64213100        4.29436000       16.74829000
      1.59950000        6.82783000       16.75670000
      6.11817000        2.08253000       19.05071000
      5.00250000       13.07300000       19.70996000
      2.87219000       14.83270000       17.17614000
      5.30515000       19.72030000       19.17311000
      4.52231000        4.52188000       15.30896000
      7.31670000       11.75480000       15.42109000
      6.17337000       13.83160000       17.88272000
      7.98262000       17.81280000       18.47914000
      6.20740000       17.84150000       18.34132000
      5.90507000       22.59270000       18.75060000
      6.49049000        1.63912000       18.13469000
      8.12507000        4.03758000       17.03868000
      7.46554000       23.33500000       17.97281000
      9.59751000       11.33610000       17.56420000
      7.26566000       15.91870000       17.66167000
     11.17450000       21.32470000       14.27351000
     11.32510000        4.66686000       15.83215000
      6.67269000        7.86744000       14.04378000
     22.36650000       14.71680000       19.58002000
      2.81689000       19.62750000       20.23540000
     23.47990000        1.19315000       19.30546000
     23.11460000       19.46990000       17.96323000
     23.46840000        4.15755000       20.01460000
     23.09870000       10.07970000       21.28540000
     11.96650000       10.98840000       19.31951000
      7.54682000       14.02450000       18.85573000
     10.19050000       21.21020000       17.16989000
     12.60470000        2.47463000       18.62213000
     12.11100000       21.79980000       16.14470000
     12.14940000        3.55473000       17.82736000
     14.26900000       13.10130000       18.90989000
     11.13720000       12.98500000       14.64799000
     13.39340000       21.44040000       17.06160000
     12.55200000       21.56770000       16.38857000
     13.18920000        6.50152000       19.62747000
     13.52760000       10.42550000       14.68642000
     11.85260000       12.38670000       19.78562000
     10.06350000       20.28930000       18.62037000
      9.83938000        4.71044000       16.38060000
      9.36704000        0.03791420       17.26637000
     12.20550000        8.49390000       18.93768000
     12.30400000       12.20630000       21.26170000
     16.13730000        2.10664000       17.15358000
     13.22650000        9.33318000       15.67647000
     14.21980000       16.52060000       19.25626000
     14.82610000       22.08210000       18.21369000
     12.74160000        6.43952000       20.01930000
     12.57990000       10.07960000       18.94277000
     17.19910000        9.30805000       19.90133000
     12.75340000       12.47000000       16.81613000
     11.39700000       19.51690000       15.16817000
     12.86520000        2.57637000       18.51600000
     15.87880000       19.70860000       17.25862000
     15.01900000        7.74291000       16.48348000
     16.92790000       14.12860000       15.99690000
     14.37280000       17.43200000       19.55523000
     17.16850000       22.04620000       16.32768000
     16.18560000        1.18835000       17.15923000
     13.19560000        2.29409000       15.32049000
     17.58050000       10.14430000       16.02853000
     13.66980000       15.91690000       16.56815000
     17.27080000       14.95360000       17.05868000
     18.76280000        1.06835000       15.75720000
     13.28210000       19.04940000       18.54710000
     17.69610000        5.32550000       17.71491000
     19.03690000        6.79639000       20.92260000
     16.97010000        2.83045000       20.33730000
     18.25920000       13.41820000       20.88220000
     15.88030000       13.98210000       20.24970000
     19.16530000       22.35190000       17.66115000
     17.73250000        3.53490000       18.06845000
     15.99350000        6.45942000       20.35240000
      3.83084000       22.67170000       18.62180000
      1.64017000       14.18820000       19.51227000
      3.64677000       17.01690000       19.44867000
      4.38227000       22.58830000       17.65619000
      0.26180300        5.90306000       15.72385000
     23.80290000        7.81299000       17.89712000
     17.28370000       12.50890000       19.75112000
     20.78020000       11.65980000       19.98877000
     19.31540000       19.88390000       16.48909000
     19.23640000        2.98281000       15.45811000
     20.47310000        0.86580600       19.04535000
     17.32280000        5.07351000       19.84831000
     22.63640000       12.75520000       15.02037000
     20.54830000       16.25450000       18.25000000
     22.73660000       19.43430000       14.53361000
     20.52580000       23.73590000       14.52767000
     21.19160000        4.15313000       18.25577000
     22.25480000       10.50720000       19.37128000
     21.07530000       13.07110000       20.02980000
     20.59620000       17.32150000       15.75107000
     21.51230000        1.03318000       18.70015000
     21.63430000       19.43490000       18.80902000
     19.37870000        8.11855000       16.49061000
     19.15060000       12.21870000       18.98338000
     20.19640000        0.36334500       15.67336000
     22.83700000       10.76110000       21.12800000
     22.32380000       17.64110000       16.91386000
     18.95020000       22.32810000       18.97384000
     21.19110000        5.78453000       15.53550000
     18.83070000       10.97570000       18.82685000
      2.99472000       10.89410000       18.79544000
     23.85860000       15.37080000       19.74191000
     23.59310000       16.71960000       17.87382000
      2.19325000        2.53516000       15.80390000
      1.55677000       23.35980000       16.09481000
     23.53830000        6.81272000       18.85486000
     22.91650000       10.10060000       19.61655000
     19.94410000       13.85100000       18.81549000
     22.30300000       15.58690000       19.01530000
     23.75450000        4.40147000       14.91262000
     22.67630000       23.48340000       16.41918000
     22.05260000        6.03409000       18.34687000
     21.98770000       14.21370000       18.65675000
     21.13320000       15.71060000       14.76255000
      2.77007000       17.92280000       15.01298000
     21.99150000        0.46810800       14.05588000
      1.65619000        0.90415500       18.68561000
     22.90390000        7.18646000       19.45602000
      6.68467000       14.60120000       14.48610000
      6.01616000       15.00790000       18.76195000
      2.57077000       18.22080000       19.35062000
      5.33099000       21.35530000       17.35617000
      4.16480000        3.08090000       15.28467000
      1.70316000       10.36380000       14.61905000
      2.60189000       16.25210000       17.19075000
      7.10797000       15.79780000       15.51478000
      2.51267000        4.66516000       17.37491000
      6.37388000       23.98000000       16.49115000
      1.28553000        6.04470000       21.33230000
      6.03910000        7.30314000       17.96238000
      2.91975000       23.98480000       19.25219000
      7.21342000       13.75140000       16.41431000
      4.07555000       13.46800000       19.55843000
      4.83729000       22.18680000       21.01500000
      8.21135000        1.93125000       17.40338000
      3.69034000        5.33102000       21.43900000
      6.11602000        8.64694000       14.56122000
      4.46366000       15.41800000       16.48299000
      5.15090000       19.81690000       18.31453000
      8.70739000       23.76130000       15.84142000
      6.56619000       20.67190000       14.60335000
      3.22359000        3.60645000       16.97411000
      7.74875000       14.61180000       19.41272000
      6.70622000       16.80840000       14.93804000
      7.57551000       20.94510000       14.47177000
      7.93321000        0.75512800       19.98912000
      8.17695000        3.26034000       19.12746000
      9.72082000        5.12460000       15.67750000
      8.48431000       16.00340000       18.84470000
      7.77798000       16.79020000       20.24280000
      5.71757000        3.47960000       17.59582000
      7.43890000       21.73260000       20.26180000
      8.98608000        5.20471000       15.52568000
      6.47119000       11.43760000       19.86258000
     12.10930000       23.06680000       15.89965000
     10.20880000       13.28750000       19.51099000
      9.03047000       18.88390000       18.85852000
      7.47613000       23.02800000       15.96190000
      7.76588000        4.84215000       17.02330000
     10.49920000        5.83871000       16.05317000
